ACTORES = {Actor0, Actor1, Actor2, Actor3, Actor4};
Escenas =[|1,0,0,0,0,1,0,1,0,0,5
		  |0,1,1,0,0,1,1,1,0,0,13
		  |1,0,0,1,1,0,0,0,0,1,19
		  |0,0,1,0,1,0,0,1,1,0,3
		  |1,1,0,1,1,0,1,1,0,0,10
		  |];
Duracion=[2, 2, 1, 2, 5, 3, 2, 4, 4, 5];